Set parameter TSPort to value 51199
Set parameter TokenServer to value "open-license1.lanl.gov"
Set parameter TimeLimit to value 256
Set parameter Threads to value 1
Gurobi Optimizer version 10.0.3 build v10.0.3rc0 (linux64)

CPU model: Intel(R) Xeon(R) CPU E5-2695 v4 @ 2.10GHz, instruction set [SSE2|AVX|AVX2]
Thread count: 36 physical cores, 72 logical processors, using up to 1 threads

Optimize a model with 0 rows, 383 columns and 0 nonzeros
Model fingerprint: 0x22e4f355
Model has 1592 quadratic objective terms
Variable types: 0 continuous, 383 integer (383 binary)
Coefficient statistics:
  Matrix range     [0e+00, 0e+00]
  Objective range  [2e+00, 3e+01]
  QObjective range [8e+00, 8e+00]
  Bounds range     [1e+00, 1e+00]
  RHS range        [0e+00, 0e+00]
Found heuristic solution: objective 0.0000000
Found heuristic solution: objective -636.0000000
Found heuristic solution: objective -2238.000000
Found heuristic solution: objective -2260.000000
Presolve time: 0.21s
Presolved: 1592 rows, 1975 columns, 4776 nonzeros
Variable types: 0 continuous, 1975 integer (1975 binary)

Root relaxation: objective -3.008000e+03, 472 iterations, 0.01 seconds (0.00 work units)

    Nodes    |    Current Node    |     Objective Bounds      |     Work
 Expl Unexpl |  Obj  Depth IntInf | Incumbent    BestBd   Gap | It/Node Time

     0     0 -3008.0000    0  383 -2260.0000 -3008.0000  33.1%     -    0s
     0     0 -2744.3333    0  540 -2260.0000 -2744.3333  21.4%     -    0s
     0     0 -2742.3333    0  541 -2260.0000 -2742.3333  21.3%     -    0s
     0     0 -2683.8750    0  590 -2260.0000 -2683.8750  18.8%     -    0s
     0     0 -2683.8750    0  576 -2260.0000 -2683.8750  18.8%     -    0s
     0     2 -2683.8750    0  574 -2260.0000 -2683.8750  18.8%     -    1s
   525   481 -2518.1573    6  960 -2260.0000 -2518.1573  11.4%  88.8    5s
   543   493 -2412.6698   16 1573 -2260.0000 -2412.6698  6.76%  85.8   10s
   557   503 -2334.3333   55 1667 -2260.0000 -2387.8385  5.66%  83.7   15s
   577   516 -2374.1483    8 1697 -2260.0000 -2374.1483  5.05%  80.8   20s
   600   531 -2364.5150   33 1727 -2260.0000 -2364.5150  4.62%  77.7   25s
   639   557 -2356.9441   48 1776 -2260.0000 -2356.9441  4.29%  72.9   30s
   688   590 -2351.4666    5 1797 -2260.0000 -2351.4666  4.05%  67.8   35s
   729   619 -2349.6347   45 1335 -2260.0000 -2349.6347  3.97%   206   40s
   738   625 -2349.2520    9 1793 -2260.0000 -2349.2520  3.95%   203   45s
   770   646 -2302.0000   70 1827 -2260.0000 -2347.0259  3.85%   195   50s
   805   670 -2345.2502   57 1824 -2260.0000 -2345.2502  3.77%   186   55s
   847   698 -2342.3040   38 1832 -2260.0000 -2342.3040  3.64%   177   60s
   882   721 -2339.6397   32 1839 -2260.0000 -2339.6397  3.52%   170   65s
   902   734 -2338.9086   43 1826 -2260.0000 -2338.9086  3.49%   166   74s
   903   737 -2336.8741   31 1782 -2260.0000 -2338.7160  3.48%   237   75s
   910   742 -2331.0083   34 1691 -2260.0000 -2336.5623  3.39%   250   80s
   919   748 -2320.1842   39 1592 -2260.0000 -2336.5623  3.39%   269   85s
   933   757 -2308.1344   46 1505 -2260.0000 -2336.5623  3.39%   286   90s
   952   770 -2287.2060   55 1392 -2260.0000 -2336.5623  3.39%   304   95s
   991   782 -2333.5411   32 1734 -2260.0000 -2336.5394  3.39%   319  100s
   999   787 -2322.5854   36 1683 -2260.0000 -2336.5394  3.39%   332  105s
  1010   794 -2312.4756   42 1525 -2260.0000 -2336.5394  3.39%   348  110s
  1028   806 -2296.9548   51 1354 -2260.0000 -2336.5394  3.39%   363  115s
  1057   826 -2277.8999   65 1142 -2260.0000 -2336.5394  3.39%   377  120s
  1092   837 -2328.5322   34 1670 -2260.0000 -2335.1458  3.33%   383  125s
  1101   843 -2313.4390   39 1632 -2260.0000 -2335.1458  3.33%   398  130s
  1114   852 -2300.7753   45 1540 -2260.0000 -2335.1458  3.33%   410  135s
  1137   867 -2274.0606   57 1381 -2260.0000 -2335.1458  3.33%   422  140s
  1168   872 -2329.6285   34 1708 -2260.0000 -2335.1455  3.33%   428  145s
  1178   878 -2315.5504   40 1554 -2260.0000 -2335.1455  3.33%   440  150s
  1194   889 -2300.1817   48 1436 -2260.0000 -2335.1455  3.33%   452  155s
H 1226   828                    -2270.000000 -2335.1455  2.87%   454  158s
  1249   840 -2272.9346   82  766 -2270.0000 -2335.1455  2.87%   452  160s
H 1253   788                    -2272.000000 -2335.1455  2.78%   451  160s
  1263   791 -2320.5023   37 1633 -2272.0000 -2332.7816  2.68%   461  165s
  1272   797 -2311.8427   39 1593 -2272.0000 -2332.7816  2.68%   471  170s
  1286   806 -2303.7263   44 1498 -2272.0000 -2332.7816  2.68%   481  175s
  1305   819 -2292.3636   49 1431 -2272.0000 -2332.7816  2.68%   491  180s
  1328   834 -2275.7935   56 1328 -2272.0000 -2332.7816  2.68%   502  185s
  1341   832 -2316.6564   38 1637 -2272.0000 -2332.7788  2.68%   510  190s
  1352   839 -2308.7183   42 1584 -2272.0000 -2332.7788  2.68%   521  195s
  1369   851 -2292.4983   50 1431 -2272.0000 -2332.7788  2.68%   529  200s
  1394   857 -2324.3196   35 1680 -2272.0000 -2331.8756  2.64%   535  205s
  1407   866 -2291.0444   48 1448 -2272.0000 -2331.8756  2.64%   543  210s
  1445   855     cutoff   55      -2272.0000 -2331.8756  2.64%   544  215s
  1455   860 -2302.3735   42 1572 -2272.0000 -2331.1857  2.61%   552  220s
  1476   864 -2322.8196   35 1687 -2272.0000 -2330.0142  2.55%   558  225s
  1489   873 -2281.8080   48 1495 -2272.0000 -2330.0142  2.55%   565  230s
  1512   866 -2317.1870   36 1645 -2272.0000 -2330.0113  2.55%   569  235s
  1540   875     cutoff   58      -2272.0000 -2330.0113  2.55%   572  240s
  1550   881 -2315.0560   40 1592 -2272.0000 -2329.6467  2.54%   579  245s
  1566   892 -2304.9103   44 1532 -2272.0000 -2329.6467  2.54%   586  250s
  1585   905 -2290.1079   52 1385 -2272.0000 -2329.6467  2.54%   593  255s

Cutting planes:
  Gomory: 7
  MIR: 62
  Flow cover: 901
  Zero half: 294
  Mod-K: 1
  RLT: 69
  BQP: 98

Explored 1592 nodes (948325 simplex iterations) in 256.00 seconds (287.33 work units)
Thread count was 1 (of 72 available processors)

Solution count 6: -2272 -2270 -2260 ... 0

Time limit reached
Best objective -2.272000000000e+03, best bound -2.328000000000e+03, gap 2.4648%

User-callback calls 16217, time in user-callback 0.08 sec

BQP_SOLUTION, 383, 1592, -856.000000, 256.001939, -1, 1, -1, 1, 1, 1, 1, -1, 1, -1, -1, 1, 1, 1, 1, -1, 1, -1, 1, 1, 1, -1, -1, 1, -1, 1, 1, 1, 1, -1, 1, 1, 1, 1, 1, -1, -1, -1, 1, 1, 1, 1, 1, 1, 1, 1, 1, 1, 1, -1, 1, 1, 1, 1, 1, 1, 1, 1, -1, 1, -1, 1, -1, 1, 1, 1, -1, 1, 1, 1, -1, 1, 1, -1, -1, 1, 1, -1, -1, -1, 1, -1, -1, -1, 1, -1, -1, -1, 1, -1, -1, -1, 1, -1, -1, -1, 1, 1, -1, -1, 1, 1, -1, 1, 1, -1, -1, 1, -1, -1, -1, -1, 1, -1, 1, -1, 1, -1, 1, -1, 1, -1, 1, -1, 1, -1, 1, -1, 1, -1, 1, 1, 1, 1, -1, 1, 1, 1, 1, 1, -1, 1, -1, 1, 1, 1, -1, 1, -1, 1, 1, 1, 1, 1, 1, 1, 1, 1, 1, 1, 1, 1, 1, 1, 1, 1, 1, 1, 1, -1, 1, 1, -1, -1, 1, 1, 1, -1, 1, 1, 1, -1, 1, 1, -1, 1, 1, 1, 1, -1, 1, -1, -1, -1, -1, 1, 1, -1, -1, -1, -1, -1, -1, -1, -1, -1, 1, -1, -1, -1, -1, -1, -1, -1, -1, -1, -1, -1, -1, -1, 1, -1, 1, -1, -1, 1, -1, 1, -1, -1, -1, 1, -1, 1, -1, 1, 1, -1, -1, -1, 1, -1, -1, -1, 1, -1, 1, -1, 1, -1, -1, -1, 1, 1, 1, 1, -1, 1, -1, -1, -1, 1, -1, -1, 1, 1, -1, 1, -1, 1, 1, -1, 1, -1, 1, -1, -1, 1, -1, -1, 1, -1, 1, -1, 1, -1, -1, -1, 1, -1, 1, -1, 1, -1, 1, -1, 1, -1, 1, 1, 1, -1, 1, -1, 1, -1, 1, -1, 1, -1, 1, -1, 1, -1, 1, -1, 1, 1, -1, -1, 1, 1, -1, 1, 1, 1, 1, -1, -1, 1, -1, -1, 1, 1, -1, -1, 1, -1, -1, 1, 1, -1, 1, -1, -1, 1, -1, -1, 1, -1, -1, -1, 1, 1, -1, -1, 1, 1, -1, -1, -1, 1, -1, 1, -1, 1, -1, -1, -1, 1, 1, 1, -1, 1, -1, 1, -1, 1, -1, 1, 1, 1, 1
BQP_DATA, 383, 1592, -856.000000, -912.000000, -2272.000000, -2328.000000, 256.001939, 1265, 1592
